
Gurobi 8.1.1 (win64) logging started 11/27/19 13:19:07

Changed value of parameter LogFile to logs/drand/qp/drand-05-110-2.log
   Prev: gurobi.log  Default: 
Changed value of parameter LogToConsole to 0
   Prev: 1  Min: 0  Max: 1  Default: 1
Changed value of parameter TimeLimit to 3600.0
   Prev: 1e+100  Min: 0.0  Max: 1e+100  Default: 1e+100
Optimize a model with 1 rows, 379 columns and 1 nonzeros
Model has 5 quadratic constraints
Variable types: 0 continuous, 379 integer (379 binary)
Coefficient statistics:
  Matrix range     [1e+00, 1e+00]
  QMatrix range    [1e+00, 1e+00]
  Objective range  [1e+00, 1e+00]
  Bounds range     [1e+00, 1e+00]
  RHS range        [1e+00, 1e+00]
  QRHS range       [1e+00, 1e+00]
Found heuristic solution: objective 379.0000000
Presolve removed 1 rows and 1 columns
Presolve time: 0.00s
Presolved: 0 rows, 378 columns, 0 nonzeros
Variable types: 0 continuous, 378 integer (378 binary)

Root relaxation: objective 1.000000e+00, 0 iterations, 0.00 seconds

    Nodes    |    Current Node    |     Objective Bounds      |     Work
 Expl Unexpl |  Obj  Depth IntInf | Incumbent    BestBd   Gap | It/Node Time

     0     0    2.00000    0    2  379.00000    2.00000  99.5%     -    0s
H    0     0                       9.0000000    2.00000  77.8%     -    0s
     0     0    2.00000    0    2    9.00000    2.00000  77.8%     -    0s
     0     0    2.00000    0    2    9.00000    2.00000  77.8%     -    0s
H    0     0                       7.0000000    2.00000  71.4%     -    0s
     0     2    2.00000    0    2    7.00000    2.00000  71.4%     -    0s
H  574   200                       6.0000000    2.00000  66.7%   1.7    5s
   814   314    5.00000  125    2    6.00000    2.00000  66.7%   1.8   11s
   988   405    5.00000  176    2    6.00000    2.00000  66.7%   1.8   15s
  1230   472    3.00000   94    2    6.00000    2.00000  66.7%   1.8   20s
  1557   587    4.00000  104    2    6.00000    2.00000  66.7%   1.7   25s
  1853   735    5.00000  154    -    6.00000    2.00000  66.7%   1.8   31s
  1979   787     cutoff  180         6.00000    2.00000  66.7%   1.8   35s
  2222   844    4.00000  106    2    6.00000    2.00000  66.7%   1.8   42s
  2414   947    4.00000  113    2    6.00000    2.00000  66.7%   1.8   47s
  2504   971    4.00000  114    2    6.00000    2.00000  66.7%   1.8   50s
  2734  1142    3.00000  110    2    6.00000    2.00000  66.7%   1.8   58s
  2841  1175    3.00000  121    2    6.00000    2.00000  66.7%   1.8   61s
  2981  1352    5.00000  172    2    6.00000    2.00000  66.7%   1.8   82s
  2983  1353    3.00000   89 1826    6.00000    2.33819  61.0%   1.8   97s
  2985  1356    3.00000   87    2    6.00000    2.33819  61.0%   4.7  111s
  2987  1357    5.00000   60 1831    6.00000    2.34127  61.0%   4.7  171s
  2988  1358    4.00000   77 1494    6.00000    2.44830  59.2%   4.7  187s
  2989  1359    4.00000   74 1464    6.00000    2.55822  57.4%   4.7  202s
  2990  1359    5.00000   94 1330    6.00000    2.62698  56.2%   4.7  220s
  2991  1360    3.00000   78 1541    6.00000    2.68085  55.3%   4.6  280s
  2992  1361    5.00000  165 1388    6.00000    2.75903  54.0%   4.6  328s
  2993  1361    4.00000   71 1367    6.00000    2.75937  54.0%   4.6  354s
  2994  1362    4.00000    4 1377    6.00000    2.78178  53.6%   4.6  393s
  2995  1363    5.00000   65 1464    6.00000    2.79476  53.4%   4.6  438s
  2996  1363    5.00000  110 1543    6.00000    2.80376  53.3%   4.6  492s
  2997  1364    3.00000   13 1522    6.00000    2.80464  53.3%   4.6  536s
  2998  1365    3.00000  103 1305    6.00000    2.81290  53.1%   4.6  554s
  2999  1365    3.00000   50 1566    6.00000    2.81331  53.1%   4.6  561s
  3000  1366    5.00000  128 1466    6.00000    2.82432  52.9%   4.6  593s
  3001  1367    4.00000   90 1485    6.00000    2.82503  52.9%   4.6  611s
  3002  1367    4.00000   47 1467    6.00000    2.83259  52.8%   4.6  637s
  3003  1368    3.00000  134 1423    6.00000    2.83306  52.8%   4.6  649s
  3004  1369    3.00000   99 1309    6.00000    2.83784  52.7%   4.6  671s
  3005  1369    5.00000  179 1337    6.00000    2.83845  52.7%   4.6  683s
  3006  1370    3.00000  100 1270    6.00000    2.84206  52.6%   4.6  701s
  3007  1371    5.00000  174 1236    6.00000    2.84300  52.6%   4.6  714s
  3008  1371    3.00000   59 1314    6.00000    2.84657  52.6%   4.6  735s
  3009  1372    4.00000   27 1298    6.00000    2.84700  52.5%   4.6  745s
  3010  1373    5.00000  201 1228    6.00000    2.85091  52.5%   4.6  773s
  3011  1373    4.00000   16 1236    6.00000    2.85125  52.5%   4.6  789s
  3012  1374    4.00000   16 1419    6.00000    2.85358  52.4%   4.6  811s
  3013  1375    4.00000   56 1403    6.00000    2.85405  52.4%   4.6  825s
  3014  1375    5.00000  104 1242    6.00000    2.85684  52.4%   4.6  850s
  3015  1376    4.00000   76 1235    6.00000    2.85704  52.4%   4.6  860s
  3016  1377    4.00000   56 1306    6.00000    2.85885  52.4%   4.6  883s
  3017  1377    4.00000   58 1308    6.00000    2.85940  52.3%   4.6  900s
  3018  1378    4.00000   48 1323    6.00000    2.86141  52.3%   4.6  923s
  3019  1379    3.00000   16 1265    6.00000    2.86144  52.3%   4.6  931s
  3020  1379    3.00000   83 1411    6.00000    2.86292  52.3%   4.6  956s
  3021  1380    5.00000  149 1369    6.00000    2.86315  52.3%   4.6  968s
  3022  1381    3.00000   84 1317    6.00000    2.86483  52.3%   4.6  995s
  3023  1381    5.00000   83 1256    6.00000    2.86497  52.3%   4.6 1006s
  3024  1382    5.00000  180 1253    6.00000    2.86609  52.2%   4.6 1030s
  3025  1383    4.00000   63 1304    6.00000    2.86637  52.2%   4.6 1043s
  3026  1383    5.00000   16 1275    6.00000    2.86754  52.2%   4.6 1069s
  3027  1384    3.00000   56 1326    6.00000    2.86773  52.2%   4.6 1082s
  3028  1385    4.00000   67 1339    6.00000    2.86900  52.2%   4.6 1110s
  3029  1385    3.00000   60 1343    6.00000    2.86905  52.2%   4.6 1120s
  3030  1386    4.00000   59 1347    6.00000    2.87004  52.2%   4.6 1147s
  3031  1387    5.00000  166 1308    6.00000    2.87019  52.2%   4.6 1160s
  3032  1387    3.00000  138 1410    6.00000    2.87103  52.1%   4.6 1188s
  3033  1388    3.00000   43 1366    6.00000    2.87114  52.1%   4.6 1202s
  3034  1389    4.00000   27 1312    6.00000    2.87175  52.1%   4.6 1227s
  3035  1389    5.00000   60 1385    6.00000    2.87197  52.1%   4.6 1243s
  3036  1390    3.00000  124 1317    6.00000    2.87292  52.1%   4.6 1274s
  3037  1391    3.00000   65 1330    6.00000    2.87294  52.1%   4.6 1282s
  3038  1391    5.00000  163 1411    6.00000    2.87364  52.1%   4.6 1312s
  3039  1392    4.00000   16 1406    6.00000    2.87370  52.1%   4.6 1324s
  3040  1393    5.00000  159 1442    6.00000    2.87424  52.1%   4.6 1354s
  3041  1393    4.00000   70 1386    6.00000    2.87438  52.1%   4.6 1370s
  3042  1394    4.00000   66 1392    6.00000    2.87520  52.1%   4.6 1403s
  3043  1395    3.00000    9 1396    6.00000    2.87526  52.1%   4.6 1415s
  3044  1395    3.00000   45 1294    6.00000    2.87586  52.1%   4.6 1445s
  3045  1396    3.00000   86 1431    6.00000    2.87596  52.1%   4.6 1461s
  3046  1397    5.00000   86 1398    6.00000    2.87666  52.1%   4.6 1495s
  3047  1397    5.00000  113 1392    6.00000    2.87666  52.1%   4.6 1502s
  3048  1398    3.00000   52 1313    6.00000    2.87717  52.0%   4.6 1531s
  3049  1399    4.00000   66 1311    6.00000    2.87721  52.0%   4.6 1543s
  3050  1399    4.00000   85 1332    6.00000    2.87760  52.0%   4.6 1571s
  3051  1400    5.00000   47 1336    6.00000    2.87767  52.0%   4.6 1585s
  3052  1401    3.50000  181 1336    6.00000    2.87806  52.0%   4.6 1615s
  3053  1401    4.00000  118 1334    6.00000    2.87814  52.0%   4.6 1631s
  3054  1402    4.00000   63 1358    6.00000    2.87859  52.0%   4.6 1666s
  3055  1403    3.00000   87 1363    6.00000    2.87859  52.0%   4.6 1672s
  3056  1403    3.00000  134 1311    6.00000    2.87903  52.0%   4.5 1702s
  3057  1404    2.87908  107 1353    6.00000    2.87908  52.0%   4.5 1716s
  3058  1405    3.00000  180 1396    6.00000    2.87952  52.0%   4.5 1746s
  3059  1405    4.00000   29 1396    6.00000    2.87963  52.0%   4.5 1763s
  3060  1406    5.00000  149 1402    6.00000    2.88011  52.0%   4.5 1795s
  3061  1407    4.00000   23 1396    6.00000    2.88012  52.0%   4.5 1803s
  3062  1407    3.00000   90 1403    6.00000    2.88054  52.0%   4.5 1834s
  3063  1408    4.00000   41 1368    6.00000    2.88058  52.0%   4.5 1847s
  3064  1409    4.00000   33 1379    6.00000    2.88084  52.0%   4.5 1876s
  3065  1409    4.00000   43 1380    6.00000    2.88091  52.0%   4.5 1893s
  3066  1410    5.00000  124 1393    6.00000    2.88123  52.0%   4.5 1923s
  3067  1411    4.00000   60 1409    6.00000    2.88124  52.0%   4.5 1934s
  3068  1411    3.00000   52 1365    6.00000    2.88150  52.0%   4.5 1962s
  3069  1412    4.00000   58 1429    6.00000    2.88158  52.0%   4.5 1980s
  3070  1413    3.00000   99 1331    6.00000    2.88186  52.0%   4.5 2010s
  3071  1413    4.00000   58 1388    6.00000    2.88188  52.0%   4.5 2022s
  3072  1414    4.00000   98 1357    6.00000    2.88210  52.0%   4.5 2051s
  3073  1415    3.00000   57 1360    6.00000    2.88215  52.0%   4.5 2067s
  3074  1415    4.00000  131 1403    6.00000    2.88236  52.0%   4.5 2099s
  3075  1416    4.00000    8 1428    6.00000    2.88238  52.0%   4.5 2113s
  3076  1417    3.00000   93 1404    6.00000    2.88256  52.0%   4.5 2147s
  3077  1417    4.00000  106 1466    6.00000    2.88260  52.0%   4.5 2165s
  3078  1418    4.00000  150 1402    6.00000    2.88282  52.0%   4.5 2201s
  3079  1419    5.00000  100 1409    6.00000    2.88282  52.0%   4.5 2210s
  3080  1419    3.00000  159 1411    6.00000    2.88306  51.9%   4.5 2244s
  3081  1420    5.00000  172 1396    6.00000    2.88306  51.9%   4.5 2252s
  3082  1421    5.00000  158 1415    6.00000    2.88327  51.9%   4.5 2284s
  3083  1421    3.00000   89 1352    6.00000    2.88328  51.9%   4.5 2295s
  3084  1422    5.00000  137 1440    6.00000    2.88359  51.9%   4.5 2333s
  3085  1423    3.00000   87 1458    6.00000    2.88361  51.9%   4.5 2345s
  3086  1423    4.50000  195 1453    6.00000    2.88387  51.9%   4.5 2381s
  3087  1424    5.00000   60 1421    6.00000    2.88389  51.9%   4.5 2395s
  3088  1425    4.00000   77 1409    6.00000    2.88406  51.9%   4.5 2426s
  3089  1425    4.00000   74 1412    6.00000    2.88411  51.9%   4.5 2444s
  3090  1426    5.00000   94 1406    6.00000    2.88430  51.9%   4.5 2481s
  3091  1427    3.00000   78 1419    6.00000    2.88431  51.9%   4.5 2493s
  3092  1427    5.00000  165 1425    6.00000    2.88445  51.9%   4.5 2525s
  3093  1428    4.00000   71 1411    6.00000    2.88448  51.9%   4.5 2543s
  3094  1429    4.00000    4 1430    6.00000    2.88462  51.9%   4.5 2579s
  3095  1429    5.00000   65 1421    6.00000    2.88463  51.9%   4.5 2591s
  3096  1430    5.00000  110 1413    6.00000    2.88477  51.9%   4.5 2626s
  3097  1431    3.00000   13 1464    6.00000    2.88480  51.9%   4.5 2643s
  3098  1431    3.00000  103 1459    6.00000    2.88496  51.9%   4.5 2679s
  3099  1432    3.00000   50 1445    6.00000    2.88499  51.9%   4.5 2696s
  3100  1433    5.00000  128 1412    6.00000    2.88513  51.9%   4.5 2730s
  3101  1433    4.00000   90 1420    6.00000    2.88515  51.9%   4.5 2745s
  3102  1434    4.00000   47 1453    6.00000    2.88530  51.9%   4.5 2782s
  3103  1435    3.00000  134 1409    6.00000    2.88533  51.9%   4.5 2800s
  3104  1435    3.00000   99 1415    6.00000    2.88547  51.9%   4.5 2837s
  3105  1436    5.00000  179 1419    6.00000    2.88548  51.9%   4.5 2849s
  3106  1437    3.00000  100 1478    6.00000    2.88558  51.9%   4.5 2883s
  3107  1437    5.00000  174 1473    6.00000    2.88561  51.9%   4.5 2901s
  3108  1438    3.00000   59 1526    6.00000    2.88574  51.9%   4.5 2937s
  3109  1439    4.00000   27 1524    6.00000    2.88575  51.9%   4.5 2950s
  3110  1439    5.00000  201 1463    6.00000    2.88586  51.9%   4.5 2984s
  3111  1440    4.00000   16 1451    6.00000    2.88588  51.9%   4.5 3001s
  3112  1441    4.00000   16 1449    6.00000    2.88597  51.9%   4.5 3035s
  3113  1441    4.00000   56 1422    6.00000    2.88599  51.9%   4.5 3053s
  3114  1442    5.00000  104 1449    6.00000    2.88607  51.9%   4.5 3087s
  3115  1443    4.00000   76 1482    6.00000    2.88608  51.9%   4.5 3100s
  3116  1443    4.00000   56 1408    6.00000    2.88615  51.9%   4.5 3134s
  3117  1444    4.00000   58 1404    6.00000    2.88617  51.9%   4.5 3152s
  3118  1445    4.00000   48 1462    6.00000    2.88623  51.9%   4.5 3187s
  3119  1445    3.00000   16 1474    6.00000    2.88624  51.9%   4.5 3205s
  3120  1446    3.00000   83 1494    6.00000    2.88629  51.9%   4.5 3240s
  3121  1447    5.00000  149 1491    6.00000    2.88631  51.9%   4.5 3259s
  3122  1447    3.00000   84 1493    6.00000    2.88636  51.9%   4.5 3296s
  3123  1448    5.00000   83 1501    6.00000    2.88636  51.9%   4.5 3311s
  3124  1449    5.00000  180 1483    6.00000    2.88640  51.9%   4.5 3345s
  3125  1449    4.00000   63 1473    6.00000    2.88641  51.9%   4.4 3364s
  3126  1450    5.00000   16 1510    6.00000    2.88646  51.9%   4.4 3406s
  3127  1451    3.00000   56 1519    6.00000    2.88647  51.9%   4.4 3427s
  3128  1451    4.00000   67 1459    6.00000    2.88651  51.9%   4.4 3463s
  3129  1452    3.00000   60 1527    6.00000    2.88653  51.9%   4.4 3485s
  3130  1453    4.00000   59 1459    6.00000    2.88659  51.9%   4.4 3528s
  3131  1453    5.00000  166 1517    6.00000    2.88661  51.9%   4.4 3547s
  3132  1454    3.00000  138 1509    6.00000    2.88667  51.9%   4.4 3584s
  3133  1455    3.00000   43 1544    6.00000    2.88667  51.9%   4.4 3599s

Cutting planes:
  Gomory: 3
  MIR: 1
  Zero half: 2
  Mod-K: 357

Explored 3133 nodes (292679 simplex iterations) in 3600.07 seconds
Thread count was 4 (of 4 available processors)

Solution count 4: 6 7 9 379 

Time limit reached
Best objective 6.000000000000e+00, best bound 3.000000000000e+00, gap 50.0000%
Warning: Q constraint 0 doesn't have a name
